* ENCODING=ISO-8859-1
NAME          CPLEX
ROWS
 N  obj1    
 G  c1      
 G  c2      
 G  c3      
 G  c4      
 G  c5      
 G  c6      
 G  c7      
 G  c8      
 G  c9      
 G  c10     
 G  c11     
 G  c12     
 G  c13     
 G  c14     
 G  c15     
 G  c16     
 G  c17     
 G  c18     
 G  c19     
 G  c20     
 G  c21     
 G  c22     
 G  c23     
 G  c24     
 G  c25     
 G  c26     
 G  c27     
 G  c28     
 G  c29     
 G  c30     
 G  c31     
 G  c32     
 G  c33     
 G  c34     
 G  c35     
 G  c36     
 G  c37     
 G  c38     
 G  c39     
 G  c40     
 G  c41     
 G  c42     
 G  c43     
 G  c44     
 G  c45     
 G  c46     
 G  c47     
 G  c48     
 G  c49     
 G  c50     
COLUMNS
    MARK0000  'MARKER'                 'INTORG'
    x1        obj1                            1
    x1        c3                            854
    x1        c9                            130
    x1        c26                           477
    x1        c27                           544
    x1        c38                           203
    x1        c41                           102
    x2        obj1                            1
    x2        c4                            678
    x2        c7                            570
    x2        c11                           712
    x2        c14                           958
    x2        c22                           437
    x2        c38                           619
    x2        c45                           679
    x2        c46                           755
    x3        obj1                            1
    x3        c15                           253
    x3        c26                           452
    x3        c42                           426
    x3        c43                           197
    x3        c47                           513
    x3        c48                           913
    x4        obj1                            1
    x4        c1                            736
    x4        c10                           898
    x4        c11                           120
    x4        c13                           740
    x4        c21                           359
    x4        c23                           979
    x4        c28                           335
    x4        c30                           988
    x4        c36                           125
    x4        c40                           613
    x4        c43                           547
    x4        c44                           826
    x5        obj1                            1
    x5        c1                            587
    x5        c22                           283
    x5        c31                           472
    x5        c48                           921
    x6        obj1                            1
    x6        c7                            663
    x6        c9                            651
    x6        c20                           996
    x6        c41                           948
    x7        obj1                            1
    x7        c1                            256
    x7        c2                            699
    x7        c5                            117
    x7        c10                           314
    x7        c17                           856
    x7        c31                           547
    x7        c44                           356
    x7        c47                           736
    x8        obj1                            1
    x8        c49                           792
    x9        obj1                            1
    x9        c7                            339
    x9        c8                            185
    x9        c35                           934
    x9        c42                           810
    x10       obj1                            1
    x10       c2                            277
    x10       c5                            308
    x10       c12                           472
    x10       c14                           981
    x10       c23                           645
    x10       c24                           811
    x10       c36                           597
    x10       c40                           116
    x10       c41                           315
    x11       obj1                            1
    x11       c3                            205
    x11       c9                            428
    x11       c14                           141
    x11       c21                           894
    x11       c35                           296
    x11       c44                           860
    x12       obj1                            1
    x12       c19                           699
    x12       c24                           911
    x12       c34                           862
    x12       c36                           804
    x12       c37                           696
    x12       c49                           373
    x13       obj1                            1
    x13       c5                            136
    x13       c12                           235
    x13       c13                           942
    x13       c20                           880
    x14       obj1                            1
    x14       c3                            161
    x14       c12                           220
    x14       c13                           494
    x14       c21                           394
    x14       c26                           411
    x14       c33                           766
    x14       c38                           425
    x14       c45                           435
    x14       c46                           155
    x14       c49                           291
    x15       obj1                            1
    x15       c9                            970
    x15       c17                           469
    x15       c20                           266
    x15       c27                           886
    x15       c29                           545
    x15       c49                           639
    x16       obj1                            1
    x16       c15                           529
    x16       c40                           479
    x17       obj1                            1
    x17       c3                            676
    x17       c4                            485
    x17       c5                            507
    x17       c13                           409
    x17       c23                           320
    x17       c28                           923
    x17       c30                           763
    x17       c36                           561
    x17       c42                           271
    x17       c50                           759
    x18       obj1                            1
    x18       c9                            233
    x18       c25                           805
    x18       c26                           900
    x18       c41                           870
    x18       c42                           421
    x18       c43                           778
    x18       c45                           666
    x19       obj1                            1
    x19       c50                           474
    x20       obj1                            1
    x20       c11                           641
    x20       c43                           467
    x20       c47                           362
    x21       obj1                            1
    x21       c3                            988
    x21       c6                            793
    x21       c13                           164
    x21       c14                           246
    x21       c17                           255
    x21       c38                           669
    x22       obj1                            1
    x22       c6                            889
    x22       c12                           558
    x22       c22                           819
    x22       c28                           193
    x22       c30                           154
    x22       c35                           330
    x22       c40                           159
    x23       obj1                            1
    x23       c1                            998
    x23       c4                            518
    x23       c8                            126
    x23       c14                           722
    x23       c17                           755
    x23       c28                           563
    x23       c29                           517
    x23       c33                           810
    x23       c49                           499
    x24       obj1                            1
    x24       c17                           608
    x24       c25                           641
    x24       c26                           883
    x24       c36                           751
    x24       c45                           295
    x25       obj1                            1
    x25       c2                            958
    x25       c6                            907
    x25       c26                           554
    x25       c46                           555
    x25       c47                           582
    x26       obj1                            1
    x26       c2                            960
    x26       c18                           307
    x26       c19                           415
    x26       c21                           103
    x26       c26                           367
    x26       c30                           564
    x27       obj1                            1
    x27       c5                            406
    x27       c38                           855
    x27       c39                           741
    x28       obj1                            1
    x28       c3                            349
    x28       c12                           834
    x28       c33                           442
    x28       c42                           849
    x28       c50                           340
    x29       obj1                            1
    x29       c2                            457
    x29       c11                           366
    x29       c14                           941
    x29       c19                           175
    x29       c23                           972
    x29       c41                           155
    x30       obj1                            1
    x30       c8                            388
    x30       c15                           454
    x30       c25                           420
    x30       c27                           633
    x30       c37                           266
    x31       obj1                            1
    x31       c13                           448
    x31       c24                           982
    x31       c29                           295
    x31       c30                           825
    x31       c31                           394
    x32       obj1                            1
    x32       c17                           866
    x32       c27                           293
    x32       c28                           437
    x32       c29                           563
    x32       c39                           993
    x33       obj1                            1
    x33       c7                            690
    x33       c14                           711
    x33       c15                           116
    x33       c16                           313
    x33       c22                           585
    x33       c36                           122
    x34       obj1                            1
    x34       c1                            725
    x34       c31                           365
    x34       c47                           753
    x34       c49                           309
    x35       obj1                            1
    x35       c1                            267
    x35       c6                            353
    x35       c7                            552
    x35       c16                           476
    x35       c20                           305
    x35       c24                           872
    x35       c31                           240
    x35       c36                           305
    x36       obj1                            1
    x36       c6                            794
    x36       c45                           225
    x37       obj1                            1
    x37       c10                           157
    x37       c12                           592
    x37       c19                           410
    x37       c30                           683
    x37       c32                           785
    x37       c34                           161
    x37       c35                           491
    x37       c50                           172
    x38       obj1                            1
    x38       c18                           221
    x38       c48                           456
    x39       obj1                            1
    x39       c2                            388
    x39       c17                           150
    x39       c22                           253
    x39       c35                           261
    x39       c41                           972
    x40       obj1                            1
    x40       c16                           260
    x40       c21                           763
    x40       c22                           210
    x40       c41                           524
    x40       c45                           888
    x40       c46                           569
    x41       obj1                            1
    x41       c28                           909
    x41       c43                           488
    x41       c46                           839
    x42       obj1                            1
    x42       c2                            208
    x42       c21                           535
    x42       c32                           183
    x42       c37                           804
    x43       obj1                            1
    x43       c7                            506
    x43       c8                            436
    x43       c11                           903
    x43       c23                           282
    x43       c32                           313
    x43       c33                           843
    x43       c34                           446
    x44       obj1                            1
    x44       c9                            744
    x44       c11                           898
    x44       c24                           604
    x44       c32                           938
    x44       c35                           137
    x44       c37                           762
    x44       c43                           706
    x44       c45                           345
    x45       obj1                            1
    x45       c18                           730
    x45       c19                           884
    x45       c23                           127
    x45       c34                           117
    x45       c46                           885
    x45       c48                           949
    x45       c50                           773
    x46       obj1                            1
    x46       c13                           505
    x46       c20                           449
    x46       c22                           248
    x46       c33                           495
    x46       c39                           471
    x46       c43                           290
    x46       c44                           201
    x47       obj1                            1
    x47       c10                           790
    x47       c19                           820
    x47       c27                           739
    x48       obj1                            1
    x48       c3                            429
    x48       c34                           841
    x48       c50                           189
    x49       obj1                            1
    x49       c12                           188
    x50       obj1                            1
    x50       c19                           651
    x50       c21                           715
    x50       c24                           320
    x50       c29                           674
    x50       c35                           229
    x50       c44                           370
    MARK0001  'MARKER'                 'INTEND'
RHS
    rhs       c1                           1785
    rhs       c2                           1974
    rhs       c3                           1831
    rhs       c4                            841
    rhs       c5                            737
    rhs       c6                           1868
    rhs       c7                           1660
    rhs       c8                            568
    rhs       c9                           1578
    rhs       c10                          1080
    rhs       c11                          1820
    rhs       c12                          1550
    rhs       c13                          1851
    rhs       c14                          2350
    rhs       c15                           676
    rhs       c16                           525
    rhs       c17                          1980
    rhs       c18                           629
    rhs       c19                          2027
    rhs       c20                          1448
    rhs       c21                          1882
    rhs       c22                          1418
    rhs       c23                          1663
    rhs       c24                          2250
    rhs       c25                           933
    rhs       c26                          2022
    rhs       c27                          1548
    rhs       c28                          1680
    rhs       c29                          1297
    rhs       c30                          1989
    rhs       c31                          1009
    rhs       c32                          1110
    rhs       c33                          1678
    rhs       c34                          1214
    rhs       c35                          1339
    rhs       c36                          1633
    rhs       c37                          1264
    rhs       c38                          1386
    rhs       c39                          1103
    rhs       c40                           684
    rhs       c41                          1943
    rhs       c42                          1389
    rhs       c43                          1737
    rhs       c44                          1307
    rhs       c45                          1767
    rhs       c46                          1879
    rhs       c47                          1473
    rhs       c48                          1620
    rhs       c49                          1452
    rhs       c50                          1354
BOUNDS
 LI bnd       x1        0
 LI bnd       x2        0
 LI bnd       x3        0
 LI bnd       x4        0
 LI bnd       x5        0
 LI bnd       x6        0
 LI bnd       x7        0
 LI bnd       x8        0
 LI bnd       x9        0
 LI bnd       x10       0
 LI bnd       x11       0
 LI bnd       x12       0
 LI bnd       x13       0
 LI bnd       x14       0
 LI bnd       x15       0
 LI bnd       x16       0
 LI bnd       x17       0
 LI bnd       x18       0
 LI bnd       x19       0
 LI bnd       x20       0
 LI bnd       x21       0
 LI bnd       x22       0
 LI bnd       x23       0
 LI bnd       x24       0
 LI bnd       x25       0
 LI bnd       x26       0
 LI bnd       x27       0
 LI bnd       x28       0
 LI bnd       x29       0
 LI bnd       x30       0
 LI bnd       x31       0
 LI bnd       x32       0
 LI bnd       x33       0
 LI bnd       x34       0
 LI bnd       x35       0
 LI bnd       x36       0
 LI bnd       x37       0
 LI bnd       x38       0
 LI bnd       x39       0
 LI bnd       x40       0
 LI bnd       x41       0
 LI bnd       x42       0
 LI bnd       x43       0
 LI bnd       x44       0
 LI bnd       x45       0
 LI bnd       x46       0
 LI bnd       x47       0
 LI bnd       x48       0
 LI bnd       x49       0
 LI bnd       x50       0
ENDATA
